(set-logic ALL)
(set-option :produce-models true)
(declare-sort BoundSet 0)
(declare-sort UnboundSet 0)
(declare-fun a () UnboundSet)
(declare-fun IsNoShirt (UnboundSet) Bool)
(declare-fun IsTampering (BoundSet) Bool)
(assert (not (=> (exists ((b BoundSet)) (and (IsNoShirt a) (IsTampering b))) (and (exists ((d BoundSet)) (IsTampering d)) (and (forall ((d BoundSet)) (forall ((b BoundSet)) (=> (IsTampering b) (IsTampering d)))) (forall ((d BoundSet)) (forall ((b BoundSet)) (=> (IsTampering d) (IsTampering b)))))))))
(check-sat)
(get-model)